111 121 46 172 12 147 40 27 158 77 30 161 80 151 187 125 181 2 35 168 150 173 23 68 169 164 140 144 70 91 95 86 139 50 185 72 83 130 62 134 22 75 155 112 31 6 54 109 107 157 120 47 177 13 145 132 85 191 15 198 123 79 160 162 65 67 55 20 64 186 42 135 127 183 8 143 34 141 58 103 90 25 17 146 129 114 98 171 200 88 148 39 28 38 71 56 152 178 196 5 105 43 137 133 176 113 195 182 94 76 102 21 154 89 59 3 73 41 167 128 193 69 189 108 142 131 180 100 33 156 197 119 19 92 99 10 175 36 57 74 45 81 97 165 104 166 87 126 96 11 52 48 84 170 122 116 188 44 179 118 16 51 194 63 153 66 190 14 192 149 106 4 101 60 163 93 49 18 29 110 37 184 61 138 124 9 78 82 7 199 26 136 32 24 159 174 117 115 53 1 111